p cnf 61 223
1 -3 -4 0
-1 3 -4 0
1 3 4 0
-1 -3 4 0
2 4 -5 0
-2 -4 -5 0
2 -4 5 0
-2 4 5 0
-6 1 0
-6 -5 0
-1 5 6 0
-7 -8 -9 0
7 8 -9 0
-7 8 9 0
7 -8 9 0
-10 6 0
-10 9 0
-6 -9 10 0
12 -11 0
12 7 0
11 -7 -12 0
-13 8 0
-13 2 0
-8 -2 13 0
3 13 -14 0
-3 -13 -14 0
3 -13 14 0
-3 13 14 0
-15 12 0
-15 -14 0
-12 14 15 0
-16 -15 0
-16 -4 0
15 4 16 0
16 -8 -17 0
-16 8 -17 0
16 8 17 0
-16 -8 17 0
-19 17 0
-19 18 0
-17 -18 19 0
-21 -14 0
-21 -20 0
14 20 21 0
-22 -19 0
-22 -21 0
19 21 22 0
23 10 0
23 22 0
-10 -22 -23 0
5 24 -25 0
-5 -24 -25 0
5 -24 25 0
-5 24 25 0
-25 5 -26 0
25 -5 -26 0
-25 -5 26 0
25 5 26 0
27 -4 0
27 15 0
4 -15 -27 0
28 7 0
28 27 0
-7 -27 -28 0
-1 -3 -29 0
1 3 -29 0
-1 3 29 0
1 -3 29 0
-29 -4 -30 0
29 4 -30 0
-29 4 30 0
29 -4 30 0
31 13 0
31 -30 0
-13 30 -31 0
-32 28 0
-32 31 0
-28 -31 32 0
33 -34 0
-33 -34 0
-35 -34 0
-35 -3 0
34 3 35 0
-36 2 0
-36 -12 0
-2 12 36 0
-37 4 0
-37 -36 0
-4 36 37 0
-35 37 -38 0
35 -37 -38 0
-35 -37 38 0
35 37 38 0
39 -34 0
39 7 0
34 -7 -39 0
-11 4 -40 0
11 -4 -40 0
-11 -4 40 0
11 4 40 0
41 39 0
41 40 0
-39 -40 -41 0
34 -24 -42 0
-34 24 -42 0
34 24 42 0
-34 -24 42 0
41 -42 -43 0
-41 42 -43 0
41 42 43 0
-41 -42 43 0
-33 44 0
33 44 0
45 -7 0
45 44 0
7 -44 -45 0
-30 45 -46 0
30 -45 -46 0
-30 -45 46 0
30 45 46 0
13 46 -47 0
-13 -46 -47 0
13 -46 47 0
-13 46 47 0
-48 -43 0
-48 47 0
43 -47 48 0
-49 38 0
-49 48 0
-38 -48 49 0
-32 -49 -50 0
32 49 -50 0
-32 49 50 0
32 -49 50 0
51 -13 0
51 18 0
13 -18 -51 0
50 -51 -52 0
-50 51 -52 0
50 51 52 0
-50 -51 52 0
26 -52 -53 0
-26 52 -53 0
26 52 53 0
-26 -52 53 0
-14 44 -54 0
14 -44 -54 0
-14 -44 54 0
14 44 54 0
55 -7 0
55 54 0
7 -54 -55 0
56 -33 0
56 -24 0
33 24 -56 0
57 5 0
57 15 0
-5 -15 -57 0
-58 56 0
-58 57 0
-56 -57 58 0
-59 -55 0
-59 58 0
55 -58 59 0
60 53 0
60 -59 0
-53 59 -60 0
-23 -60 -61 0
23 60 -61 0
-23 60 61 0
23 -60 61 0
44 -12 0
6 20 38 -29 0
-31 -21 0
-24 -51 32 48 0
-45 -39 -38 -53 0
-16 13 -39 -49 0
-17 29 56 51 0
-42 59 19 21 8 -16 0
-1 58 26 59 -16 0
54 -28 0
15 -61 -47 58 17 0
-11 2 40 49 0
-10 -31 -1 33 14 -49 0
-40 -9 5 0
29 9 -18 36 49 26 0
31 -49 19 0
19 -25 -58 54 0
-26 -15 -59 0
-5 -36 60 17 -24 -57 0
54 -31 -18 -19 0
57 -32 -59 -30 0
18 53 -32 -15 -7 0
35 -32 -56 0
-28 -50 19 32 0
-50 10 37 -55 9 43 0
-26 -34 -42 13 36 0
56 53 25 10 -17 0
8 -35 56 -36 -34 0
-33 -10 -25 55 14 0
-22 2 0
7 -2 13 0
7 38 32 0
-36 -32 -13 -6 0
58 18 -13 -10 0
-58 -30 0
-15 55 19 0
8 -21 19 -46 -15 0
33 -32 13 54 0
43 2 -11 47 41 0
47 8 39 48 40 0
-47 -22 -20 0
17 -57 -54 42 -36 29 0
36 3 13 0
-42 59 -19 12 0
-14 -50 -28 5 -18 1 0
32 37 18 -51 -26 0
-44 -32 -23 50 -22 0
5 19 42 0
-44 -12 20 -37 -56 -23 0
4 12 -60 23 15 0
42 4 -49 -54 50 -38 0
61 0
